0
10
53
42
36
0
42
11
27
0
56
0
21
29
81
40
24
0
73
104
13
33
0
31
9
118
12
144
0
47
13
0
30
93
15
29
86
0
23
15
30
30
21
0
0
11
29
55
0
19
15
75
20
21
25
17
9
0
29
30
15
0
34
8
41
0
28
21
21
0
8
17
0
67
15
18
20
13
30
0
19
19
55
7
33
51
34
0
0
17
19
21
11
24
43
10
0
15
21
0
